500
300 300
1 240 418
2 240 832
3 240 465
4 240 235
5 239 488
6 238 227
7 238 693
8 237 665
9 237 357
10 237 21
11 236 50
12 236 510
13 236 244
14 236 488
15 236 914
16 236 175
17 235 316
18 235 161
19 234 487
20 233 5
21 233 900
22 233 404
23 233 669
24 232 581
25 232 946
26 232 479
27 231 173
28 231 967
29 230 188
30 230 488
31 230 286
32 230 119
33 228 592
34 228 958
35 227 67
36 227 975
37 226 840
38 226 709
39 226 284
40 224 101
41 224 352
42 224 684
43 223 907
44 223 24
45 223 60
46 223 47
47 223 905
48 223 819
49 222 947
50 222 566
51 222 587
52 221 411
53 220 416
54 219 200
55 219 175
56 218 756
57 217 1
58 217 677
59 217 132
60 216 146
61 216 91
62 216 970
63 216 815
64 216 993
65 216 442
66 216 862
67 215 499
68 215 72
69 215 877
70 214 783
71 214 177
72 213 477
73 213 666
74 213 325
75 212 324
76 212 334
77 211 475
78 210 370
79 210 746
80 210 95
81 209 142
82 209 431
83 209 947
84 209 270
85 209 719
86 208 819
87 208 450
88 208 735
89 208 131
90 208 201
91 208 536
92 207 233
93 206 850
94 205 753
95 205 397
96 205 509
97 204 910
98 204 581
99 203 467
100 202 557
101 202 64
102 201 464
103 200 828
104 200 379
105 199 832
106 198 55
107 197 932
108 197 696
109 196 745
110 196 891
111 196 453
112 196 557
113 195 685
114 193 655
115 193 460
116 192 263
117 192 634
118 192 596
119 191 433
120 190 227
121 190 839
122 190 313
123 190 66
124 189 567
125 188 733
126 187 805
127 187 185
128 187 875
129 185 772
130 184 350
131 184 794
132 184 481
133 183 783
134 182 9
135 182 742
136 182 23
137 182 98
138 182 597
139 181 151
140 180 754
141 180 6
142 180 21
143 180 581
144 180 426
145 179 563
146 179 503
147 179 394
148 179 473
149 178 203
150 177 470
151 177 625
152 177 373
153 177 409
154 176 12
155 175 702
156 175 401
157 175 540
158 174 198
159 174 803
160 174 546
161 174 862
162 174 542
163 173 517
164 173 134
165 171 597
166 171 961
167 171 655
168 171 789
169 171 459
170 171 454
171 170 983
172 169 83
173 169 485
174 169 863
175 169 610
176 169 687
177 167 113
178 167 449
179 167 166
180 167 819
181 166 894
182 164 961
183 164 84
184 164 768
185 164 220
186 161 893
187 161 488
188 161 551
189 161 947
190 160 634
191 160 675
192 159 672
193 159 949
194 159 184
195 158 263
196 158 866
197 158 228
198 157 51
199 157 274
200 157 585
201 157 861
202 157 686
203 156 346
204 156 403
205 156 833
206 155 755
207 155 420
208 154 976
209 152 801
210 152 965
211 152 774
212 151 32
213 151 416
214 151 633
215 150 222
216 150 179
217 150 163
218 149 202
219 149 507
220 149 575
221 148 602
222 148 572
223 147 471
224 147 961
225 147 496
226 146 789
227 145 286
228 145 967
229 145 276
230 144 389
231 144 35
232 143 867
233 143 508
234 143 358
235 143 226
236 143 674
237 143 457
238 142 232
239 142 161
240 142 191
241 142 628
242 141 705
243 141 124
244 141 104
245 141 320
246 140 410
247 139 206
248 139 948
249 139 760
250 139 822
251 139 472
252 138 565
253 138 195
254 137 848
255 137 703
256 137 415
257 137 157
258 135 252
259 135 32
260 135 449
261 133 984
262 133 702
263 132 511
264 132 275
265 132 324
266 132 115
267 132 922
268 131 60
269 130 689
270 130 184
271 129 117
272 129 154
273 129 256
274 128 150
275 128 741
276 128 692
277 128 402
278 128 661
279 128 515
280 127 511
281 127 865
282 127 757
283 127 165
284 127 108
285 126 581
286 125 385
287 124 531
288 124 229
289 124 12
290 124 721
291 123 207
292 122 183
293 122 148
294 121 450
295 121 641
296 121 828
297 120 78
298 119 664
299 119 846
300 119 686
301 119 504
302 118 278
303 117 458
304 117 289
305 115 893
306 115 399
307 115 924
308 115 269
309 115 118
310 115 676
311 114 935
312 114 139
313 114 701
314 114 530
315 114 873
316 113 74
317 113 515
318 113 180
319 113 345
320 113 527
321 113 623
322 112 309
323 112 740
324 112 635
325 111 411
326 110 272
327 110 453
328 110 842
329 109 399
330 108 398
331 107 335
332 107 271
333 105 259
334 105 17
335 104 13
336 104 423
337 103 891
338 102 732
339 101 306
340 100 715
341 99 990
342 99 780
343 99 605
344 99 456
345 98 252
346 98 262
347 98 231
348 97 303
349 97 814
350 97 728
351 97 417
352 96 448
353 96 395
354 95 96
355 95 0
356 94 291
357 94 452
358 94 498
359 94 646
360 93 961
361 93 441
362 93 605
363 92 877
364 91 845
365 91 211
366 91 606
367 91 136
368 90 921
369 90 716
370 90 739
371 90 232
372 89 529
373 89 770
374 89 953
375 88 396
376 88 577
377 87 28
378 87 811
379 86 936
380 86 913
381 85 186
382 85 423
383 85 124
384 85 884
385 83 857
386 83 889
387 83 348
388 83 360
389 83 532
390 82 117
391 82 199
392 80 607
393 80 408
394 80 942
395 79 549
396 79 475
397 79 978
398 79 722
399 79 856
400 78 736
401 78 449
402 78 163
403 75 7
404 75 493
405 74 724
406 74 501
407 74 116
408 73 799
409 72 479
410 72 321
411 72 886
412 71 177
413 71 893
414 71 104
415 71 836
416 70 200
417 69 775
418 69 175
419 67 911
420 67 287
421 67 505
422 67 548
423 67 182
424 67 54
425 67 169
426 67 503
427 66 748
428 66 125
429 66 759
430 66 970
431 65 941
432 64 727
433 63 158
434 62 402
435 62 280
436 62 746
437 61 214
438 61 493
439 60 542
440 58 790
441 57 827
442 57 197
443 57 584
444 57 175
445 56 292
446 56 776
447 56 904
448 55 439
449 55 267
450 54 781
451 54 678
452 54 935
453 53 818
454 53 466
455 53 527
456 53 475
457 52 652
458 52 429
459 52 230
460 51 201
461 50 464
462 49 80
463 49 332
464 47 571
465 45 918
466 44 669
467 44 801
468 43 934
469 42 723
470 42 283
471 42 684
472 41 52
473 41 403
474 40 516
475 39 809
476 38 511
477 37 41
478 37 329
479 37 647
480 37 581
481 36 951
482 36 955
483 36 638
484 36 671
485 35 324
486 35 821
487 35 527
488 34 49
489 34 173
490 34 933
491 34 369
492 34 901
493 34 369
494 32 93
495 32 749
496 31 672
497 31 117
498 31 97
499 30 494
500 30 88
